p cnf 150 3067
1 2 3 4 5 0
6 7 8 9 10 0
11 12 13 14 15 0
16 17 18 19 20 0
21 22 23 24 25 0
26 27 28 29 30 0
31 32 33 34 35 0
36 37 38 39 40 0
41 42 43 44 45 0
46 47 48 49 50 0
51 52 53 54 55 0
56 57 58 59 60 0
61 62 63 64 65 0
66 67 68 69 70 0
71 72 73 74 75 0
76 77 78 79 80 0
81 82 83 84 85 0
86 87 88 89 90 0
91 92 93 94 95 0
96 97 98 99 100 0
101 102 103 104 105 0
106 107 108 109 110 0
111 112 113 114 115 0
116 117 118 119 120 0
121 122 123 124 125 0
126 127 128 129 130 0
131 132 133 134 135 0
136 137 138 139 140 0
141 142 143 144 145 0
146 147 148 149 150 0
-1 -2 0
-1 -3 0
-1 -4 0
-1 -5 0
-2 -3 0
-2 -4 0
-2 -5 0
-3 -4 0
-3 -5 0
-4 -5 0
-6 -7 0
-6 -8 0
-6 -9 0
-6 -10 0
-7 -8 0
-7 -9 0
-7 -10 0
-8 -9 0
-8 -10 0
-9 -10 0
-11 -12 0
-11 -13 0
-11 -14 0
-11 -15 0
-12 -13 0
-12 -14 0
-12 -15 0
-13 -14 0
-13 -15 0
-14 -15 0
-16 -17 0
-16 -18 0
-16 -19 0
-16 -20 0
-17 -18 0
-17 -19 0
-17 -20 0
-18 -19 0
-18 -20 0
-19 -20 0
-21 -22 0
-21 -23 0
-21 -24 0
-21 -25 0
-22 -23 0
-22 -24 0
-22 -25 0
-23 -24 0
-23 -25 0
-24 -25 0
-26 -27 0
-26 -28 0
-26 -29 0
-26 -30 0
-27 -28 0
-27 -29 0
-27 -30 0
-28 -29 0
-28 -30 0
-29 -30 0
-31 -32 0
-31 -33 0
-31 -34 0
-31 -35 0
-32 -33 0
-32 -34 0
-32 -35 0
-33 -34 0
-33 -35 0
-34 -35 0
-36 -37 0
-36 -38 0
-36 -39 0
-36 -40 0
-37 -38 0
-37 -39 0
-37 -40 0
-38 -39 0
-38 -40 0
-39 -40 0
-41 -42 0
-41 -43 0
-41 -44 0
-41 -45 0
-42 -43 0
-42 -44 0
-42 -45 0
-43 -44 0
-43 -45 0
-44 -45 0
-46 -47 0
-46 -48 0
-46 -49 0
-46 -50 0
-47 -48 0
-47 -49 0
-47 -50 0
-48 -49 0
-48 -50 0
-49 -50 0
-51 -52 0
-51 -53 0
-51 -54 0
-51 -55 0
-52 -53 0
-52 -54 0
-52 -55 0
-53 -54 0
-53 -55 0
-54 -55 0
-56 -57 0
-56 -58 0
-56 -59 0
-56 -60 0
-57 -58 0
-57 -59 0
-57 -60 0
-58 -59 0
-58 -60 0
-59 -60 0
-61 -62 0
-61 -63 0
-61 -64 0
-61 -65 0
-62 -63 0
-62 -64 0
-62 -65 0
-63 -64 0
-63 -65 0
-64 -65 0
-66 -67 0
-66 -68 0
-66 -69 0
-66 -70 0
-67 -68 0
-67 -69 0
-67 -70 0
-68 -69 0
-68 -70 0
-69 -70 0
-71 -72 0
-71 -73 0
-71 -74 0
-71 -75 0
-72 -73 0
-72 -74 0
-72 -75 0
-73 -74 0
-73 -75 0
-74 -75 0
-76 -77 0
-76 -78 0
-76 -79 0
-76 -80 0
-77 -78 0
-77 -79 0
-77 -80 0
-78 -79 0
-78 -80 0
-79 -80 0
-81 -82 0
-81 -83 0
-81 -84 0
-81 -85 0
-82 -83 0
-82 -84 0
-82 -85 0
-83 -84 0
-83 -85 0
-84 -85 0
-86 -87 0
-86 -88 0
-86 -89 0
-86 -90 0
-87 -88 0
-87 -89 0
-87 -90 0
-88 -89 0
-88 -90 0
-89 -90 0
-91 -92 0
-91 -93 0
-91 -94 0
-91 -95 0
-92 -93 0
-92 -94 0
-92 -95 0
-93 -94 0
-93 -95 0
-94 -95 0
-96 -97 0
-96 -98 0
-96 -99 0
-96 -100 0
-97 -98 0
-97 -99 0
-97 -100 0
-98 -99 0
-98 -100 0
-99 -100 0
-101 -102 0
-101 -103 0
-101 -104 0
-101 -105 0
-102 -103 0
-102 -104 0
-102 -105 0
-103 -104 0
-103 -105 0
-104 -105 0
-106 -107 0
-106 -108 0
-106 -109 0
-106 -110 0
-107 -108 0
-107 -109 0
-107 -110 0
-108 -109 0
-108 -110 0
-109 -110 0
-111 -112 0
-111 -113 0
-111 -114 0
-111 -115 0
-112 -113 0
-112 -114 0
-112 -115 0
-113 -114 0
-113 -115 0
-114 -115 0
-116 -117 0
-116 -118 0
-116 -119 0
-116 -120 0
-117 -118 0
-117 -119 0
-117 -120 0
-118 -119 0
-118 -120 0
-119 -120 0
-121 -122 0
-121 -123 0
-121 -124 0
-121 -125 0
-122 -123 0
-122 -124 0
-122 -125 0
-123 -124 0
-123 -125 0
-124 -125 0
-126 -127 0
-126 -128 0
-126 -129 0
-126 -130 0
-127 -128 0
-127 -129 0
-127 -130 0
-128 -129 0
-128 -130 0
-129 -130 0
-131 -132 0
-131 -133 0
-131 -134 0
-131 -135 0
-132 -133 0
-132 -134 0
-132 -135 0
-133 -134 0
-133 -135 0
-134 -135 0
-136 -137 0
-136 -138 0
-136 -139 0
-136 -140 0
-137 -138 0
-137 -139 0
-137 -140 0
-138 -139 0
-138 -140 0
-139 -140 0
-141 -142 0
-141 -143 0
-141 -144 0
-141 -145 0
-142 -143 0
-142 -144 0
-142 -145 0
-143 -144 0
-143 -145 0
-144 -145 0
-146 -147 0
-146 -148 0
-146 -149 0
-146 -150 0
-147 -148 0
-147 -149 0
-147 -150 0
-148 -149 0
-148 -150 0
-149 -150 0
-5 -9 0
-1 -6 0
-4 -10 0
-2 -6 0
-5 -8 0
-3 -6 0
-2 -7 0
-4 -14 0
-3 -12 0
-4 -12 0
-3 -15 0
-3 -14 0
-3 -11 0
-3 -13 0
-1 -19 0
-3 -19 0
-3 -20 0
-2 -17 0
-1 -18 0
-3 -17 0
-3 -16 0
-2 -23 0
-1 -23 0
-5 -23 0
-1 -22 0
-4 -25 0
-3 -22 0
-1 -24 0
-5 -27 0
-1 -30 0
-2 -27 0
-2 -29 0
-4 -30 0
-3 -26 0
-2 -28 0
-1 -32 0
-1 -34 0
-5 -35 0
-2 -35 0
-5 -34 0
-5 -33 0
-4 -34 0
-3 -38 0
-2 -39 0
-2 -40 0
-5 -40 0
-4 -40 0
-1 -36 0
-1 -38 0
-3 -43 0
-5 -41 0
-5 -43 0
-5 -42 0
-2 -43 0
-3 -45 0
-4 -44 0
-1 -48 0
-2 -49 0
-1 -50 0
-1 -47 0
-5 -49 0
-1 -46 0
-1 -49 0
-3 -54 0
-4 -52 0
-4 -51 0
-1 -52 0
-3 -55 0
-1 -54 0
-2 -53 0
-2 -57 0
-2 -58 0
-1 -59 0
-3 -60 0
-2 -59 0
-1 -60 0
-5 -56 0
-1 -62 0
-2 -65 0
-3 -63 0
-5 -62 0
-3 -64 0
-5 -64 0
-3 -61 0
-3 -67 0
-2 -66 0
-3 -68 0
-4 -66 0
-3 -69 0
-4 -68 0
-3 -70 0
-5 -72 0
-1 -73 0
-2 -71 0
-3 -75 0
-4 -75 0
-1 -74 0
-2 -75 0
-4 -80 0
-2 -80 0
-2 -78 0
-3 -77 0
-5 -79 0
-4 -77 0
-3 -78 0
-2 -84 0
-1 -84 0
-2 -85 0
-3 -82 0
-4 -82 0
-1 -82 0
-2 -82 0
-3 -89 0
-2 -89 0
-1 -90 0
-3 -90 0
-4 -88 0
-3 -87 0
-3 -88 0
-1 -91 0
-1 -92 0
-5 -93 0
-5 -92 0
-5 -94 0
-5 -91 0
-3 -92 0
-5 -98 0
-3 -100 0
-5 -99 0
-1 -98 0
-2 -99 0
-1 -96 0
-4 -100 0
-2 -110 0
-2 -107 0
-1 -106 0
-1 -110 0
-4 -108 0
-1 -109 0
-4 -106 0
-2 -114 0
-4 -114 0
-5 -114 0
-5 -112 0
-3 -114 0
-4 -113 0
-4 -115 0
-3 -118 0
-3 -119 0
-2 -116 0
-5 -120 0
-4 -117 0
-4 -116 0
-5 -119 0
-5 -122 0
-4 -121 0
-4 -123 0
-2 -124 0
-3 -125 0
-2 -121 0
-5 -125 0
-4 -127 0
-1 -130 0
-5 -130 0
-5 -128 0
-2 -128 0
-3 -126 0
-3 -128 0
-4 -133 0
-4 -131 0
-5 -132 0
-5 -135 0
-2 -133 0
-5 -131 0
-1 -132 0
-4 -137 0
-5 -138 0
-1 -139 0
-1 -136 0
-2 -138 0
-5 -136 0
-5 -137 0
-1 -141 0
-1 -145 0
-2 -142 0
-1 -142 0
-5 -143 0
-2 -143 0
-5 -144 0
-1 -149 0
-1 -150 0
-2 -148 0
-5 -149 0
-4 -148 0
-3 -146 0
-2 -150 0
-10 -12 0
-7 -13 0
-10 -15 0
-7 -11 0
-8 -15 0
-6 -13 0
-9 -12 0
-7 -20 0
-10 -16 0
-9 -20 0
-9 -19 0
-7 -19 0
-9 -17 0
-7 -18 0
-10 -22 0
-8 -25 0
-8 -24 0
-8 -21 0
-7 -25 0
-9 -21 0
-9 -24 0
-8 -26 0
-7 -26 0
-7 -28 0
-6 -29 0
-9 -27 0
-6 -30 0
-10 -30 0
-10 -32 0
-10 -34 0
-9 -31 0
-7 -34 0
-6 -35 0
-7 -35 0
-8 -35 0
-6 -38 0
-9 -40 0
-8 -40 0
-9 -39 0
-10 -36 0
-7 -38 0
-8 -36 0
-6 -45 0
-7 -44 0
-10 -42 0
-6 -42 0
-6 -44 0
-7 -42 0
-9 -43 0
-7 -47 0
-8 -47 0
-8 -48 0
-8 -50 0
-6 -47 0
-9 -46 0
-9 -49 0
-6 -52 0
-6 -51 0
-9 -54 0
-7 -51 0
-10 -54 0
-10 -53 0
-7 -52 0
-6 -57 0
-7 -58 0
-8 -56 0
-6 -56 0
-10 -59 0
-6 -59 0
-7 -60 0
-6 -63 0
-7 -63 0
-7 -64 0
-9 -62 0
-9 -63 0
-6 -64 0
-10 -62 0
-9 -66 0
-6 -69 0
-6 -66 0
-7 -68 0
-9 -68 0
-6 -67 0
-9 -70 0
-9 -71 0
-10 -72 0
-7 -74 0
-7 -72 0
-10 -73 0
-8 -73 0
-9 -73 0
-6 -85 0
-6 -84 0
-7 -82 0
-9 -84 0
-10 -85 0
-10 -84 0
-9 -82 0
-7 -86 0
-6 -90 0
-7 -88 0
-9 -89 0
-8 -90 0
-8 -88 0
-10 -88 0
-9 -91 0
-6 -91 0
-9 -92 0
-7 -93 0
-9 -95 0
-8 -95 0
-6 -94 0
-10 -100 0
-9 -99 0
-6 -99 0
-6 -98 0
-8 -99 0
-6 -96 0
-7 -98 0
-10 -103 0
-8 -103 0
-10 -102 0
-6 -101 0
-9 -105 0
-9 -104 0
-7 -105 0
-10 -109 0
-9 -108 0
-9 -107 0
-8 -107 0
-9 -109 0
-10 -108 0
-10 -107 0
-10 -115 0
-7 -111 0
-8 -112 0
-6 -114 0
-8 -111 0
-9 -114 0
-6 -113 0
-8 -119 0
-8 -118 0
-9 -117 0
-7 -119 0
-10 -118 0
-10 -117 0
-6 -118 0
-6 -123 0
-7 -124 0
-8 -125 0
-10 -125 0
-9 -121 0
-10 -124 0
-8 -123 0
-10 -129 0
-6 -128 0
-8 -129 0
-9 -127 0
-7 -128 0
-7 -130 0
-7 -126 0
-10 -133 0
-6 -135 0
-7 -134 0
-10 -132 0
-8 -132 0
-10 -135 0
-8 -133 0
-10 -139 0
-6 -138 0
-10 -136 0
-7 -137 0
-8 -137 0
-7 -138 0
-8 -140 0
-6 -146 0
-10 -150 0
-8 -149 0
-7 -148 0
-6 -147 0
-7 -150 0
-7 -147 0
-15 -16 0
-12 -18 0
-13 -17 0
-13 -16 0
-15 -20 0
-14 -20 0
-13 -19 0
-15 -21 0
-13 -21 0
-15 -22 0
-12 -21 0
-12 -23 0
-11 -24 0
-15 -25 0
-15 -34 0
-11 -33 0
-11 -32 0
-14 -35 0
-13 -34 0
-13 -32 0
-14 -31 0
-11 -40 0
-13 -36 0
-12 -36 0
-13 -38 0
-13 -39 0
-11 -36 0
-11 -38 0
-15 -44 0
-11 -45 0
-11 -42 0
-14 -44 0
-12 -45 0
-15 -43 0
-12 -43 0
-13 -47 0
-15 -46 0
-12 -49 0
-11 -49 0
-11 -48 0
-14 -48 0
-15 -49 0
-11 -53 0
-12 -52 0
-13 -55 0
-13 -52 0
-12 -55 0
-13 -53 0
-15 -51 0
-11 -63 0
-15 -65 0
-15 -63 0
-14 -61 0
-14 -63 0
-14 -62 0
-13 -63 0
-11 -69 0
-12 -66 0
-13 -69 0
-13 -70 0
-12 -70 0
-15 -70 0
-12 -67 0
-15 -71 0
-15 -72 0
-15 -73 0
-13 -71 0
-14 -74 0
-12 -75 0
-13 -72 0
-13 -78 0
-13 -76 0
-15 -79 0
-15 -77 0
-13 -80 0
-15 -78 0
-13 -77 0
-14 -81 0
-14 -84 0
-15 -81 0
-13 -84 0
-15 -85 0
-11 -84 0
-13 -82 0
-12 -86 0
-15 -90 0
-14 -87 0
-11 -90 0
-12 -88 0
-13 -86 0
-11 -86 0
-14 -92 0
-12 -92 0
-11 -94 0
-15 -95 0
-15 -93 0
-13 -93 0
-15 -91 0
-11 -99 0
-12 -100 0
-15 -100 0
-14 -99 0
-11 -96 0
-11 -97 0
-15 -96 0
-12 -104 0
-11 -103 0
-13 -105 0
-12 -102 0
-11 -102 0
-14 -101 0
-11 -104 0
-12 -112 0
-15 -111 0
-11 -115 0
-12 -115 0
-13 -113 0
-13 -112 0
-12 -113 0
-14 -118 0
-14 -120 0
-12 -117 0
-13 -116 0
-12 -119 0
-11 -117 0
-13 -120 0
-14 -127 0
-14 -129 0
-13 -130 0
-12 -127 0
-13 -126 0
-11 -126 0
-15 -129 0
-15 -131 0
-15 -133 0
-14 -132 0
-14 -133 0
-12 -133 0
-11 -134 0
-14 -131 0
-11 -142 0
-15 -144 0
-14 -145 0
-11 -143 0
-15 -142 0
-12 -142 0
-13 -142 0
-14 -149 0
-15 -148 0
-11 -146 0
-15 -147 0
-11 -147 0
-11 -148 0
-12 -148 0
-20 -23 0
-20 -21 0
-17 -25 0
-17 -24 0
-20 -22 0
-18 -23 0
-19 -22 0
-19 -27 0
-18 -27 0
-20 -26 0
-17 -30 0
-19 -29 0
-17 -27 0
-16 -27 0
-16 -32 0
-20 -31 0
-16 -35 0
-16 -31 0
-17 -31 0
-19 -32 0
-20 -35 0
-16 -50 0
-20 -47 0
-16 -47 0
-17 -50 0
-20 -46 0
-19 -49 0
-17 -47 0
-16 -52 0
-19 -52 0
-20 -51 0
-19 -53 0
-17 -53 0
-16 -51 0
-17 -51 0
-17 -65 0
-16 -64 0
-19 -63 0
-20 -61 0
-18 -63 0
-16 -62 0
-18 -64 0
-20 -66 0
-20 -68 0
-18 -70 0
-17 -67 0
-20 -70 0
-17 -70 0
-19 -67 0
-16 -74 0
-16 -73 0
-19 -72 0
-16 -75 0
-20 -73 0
-17 -73 0
-20 -74 0
-18 -78 0
-18 -79 0
-18 -76 0
-16 -76 0
-20 -78 0
-19 -79 0
-19 -76 0
-18 -84 0
-16 -81 0
-18 -81 0
-16 -82 0
-17 -83 0
-20 -82 0
-20 -85 0
-16 -90 0
-20 -87 0
-19 -88 0
-20 -86 0
-19 -90 0
-16 -88 0
-19 -87 0
-19 -94 0
-20 -94 0
-18 -92 0
-17 -95 0
-16 -93 0
-20 -95 0
-20 -92 0
-16 -97 0
-16 -98 0
-19 -98 0
-19 -100 0
-17 -96 0
-20 -96 0
-18 -99 0
-20 -105 0
-20 -102 0
-18 -104 0
-19 -103 0
-17 -103 0
-19 -105 0
-17 -104 0
-16 -109 0
-18 -106 0
-16 -107 0
-18 -107 0
-17 -107 0
-17 -109 0
-19 -109 0
-19 -111 0
-17 -111 0
-20 -114 0
-18 -115 0
-17 -114 0
-17 -113 0
-20 -112 0
-17 -119 0
-18 -116 0
-18 -120 0
-19 -116 0
-19 -118 0
-19 -117 0
-17 -118 0
-18 -122 0
-18 -121 0
-16 -121 0
-17 -121 0
-20 -122 0
-19 -122 0
-20 -123 0
-16 -129 0
-20 -129 0
-16 -130 0
-20 -128 0
-17 -129 0
-18 -128 0
-19 -128 0
-20 -135 0
-18 -133 0
-16 -131 0
-17 -134 0
-17 -133 0
-16 -134 0
-18 -132 0
-17 -136 0
-20 -137 0
-16 -138 0
-18 -137 0
-17 -140 0
-19 -136 0
-17 -137 0
-18 -142 0
-18 -141 0
-20 -143 0
-19 -143 0
-20 -142 0
-16 -143 0
-17 -143 0
-23 -28 0
-24 -30 0
-25 -27 0
-21 -26 0
-24 -29 0
-21 -30 0
-22 -26 0
-24 -31 0
-24 -34 0
-23 -33 0
-21 -31 0
-24 -35 0
-25 -34 0
-22 -34 0
-25 -40 0
-22 -40 0
-23 -36 0
-25 -39 0
-21 -36 0
-21 -37 0
-22 -38 0
-21 -41 0
-22 -42 0
-22 -45 0
-21 -42 0
-25 -41 0
-24 -45 0
-23 -43 0
-22 -47 0
-21 -47 0
-24 -48 0
-21 -50 0
-23 -48 0
-21 -49 0
-23 -50 0
-24 -51 0
-22 -52 0
-25 -52 0
-22 -53 0
-21 -55 0
-21 -51 0
-25 -53 0
-23 -64 0
-24 -65 0
-24 -62 0
-21 -65 0
-21 -64 0
-25 -63 0
-21 -62 0
-25 -69 0
-23 -68 0
-22 -68 0
-23 -66 0
-22 -66 0
-24 -70 0
-23 -69 0
-21 -73 0
-24 -73 0
-23 -73 0
-25 -75 0
-23 -71 0
-21 -71 0
-22 -72 0
-24 -85 0
-23 -82 0
-21 -82 0
-25 -84 0
-21 -85 0
-22 -81 0
-25 -81 0
-23 -89 0
-25 -86 0
-23 -90 0
-21 -88 0
-24 -86 0
-22 -86 0
-23 -87 0
-23 -91 0
-24 -91 0
-25 -91 0
-21 -94 0
-22 -92 0
-23 -93 0
-21 -91 0
-24 -99 0
-23 -99 0
-21 -98 0
-21 -100 0
-24 -97 0
-22 -98 0
-23 -97 0
-22 -105 0
-21 -104 0
-25 -103 0
-24 -103 0
-25 -101 0
-25 -104 0
-21 -101 0
-22 -106 0
-23 -109 0
-25 -108 0
-25 -107 0
-22 -107 0
-24 -110 0
-24 -106 0
-21 -124 0
-23 -123 0
-24 -122 0
-25 -124 0
-25 -121 0
-25 -122 0
-25 -123 0
-24 -127 0
-24 -128 0
-23 -130 0
-24 -130 0
-25 -128 0
-23 -128 0
-25 -127 0
-24 -132 0
-25 -135 0
-21 -133 0
-25 -134 0
-22 -132 0
-24 -134 0
-24 -131 0
-21 -144 0
-23 -143 0
-24 -145 0
-21 -141 0
-25 -141 0
-22 -143 0
-22 -145 0
-25 -150 0
-23 -147 0
-25 -149 0
-22 -148 0
-24 -147 0
-23 -146 0
-23 -150 0
-29 -37 0
-26 -37 0
-30 -36 0
-27 -40 0
-29 -39 0
-29 -38 0
-26 -39 0
-30 -41 0
-30 -42 0
-26 -44 0
-29 -44 0
-29 -42 0
-30 -44 0
-30 -45 0
-26 -49 0
-28 -46 0
-30 -47 0
-26 -47 0
-27 -50 0
-28 -49 0
-27 -48 0
-27 -53 0
-26 -54 0
-30 -55 0
-27 -55 0
-27 -52 0
-28 -51 0
-28 -53 0
-26 -56 0
-27 -60 0
-30 -56 0
-27 -58 0
-29 -58 0
-27 -59 0
-29 -59 0
-28 -65 0
-28 -62 0
-28 -61 0
-29 -62 0
-28 -64 0
-27 -63 0
-30 -61 0
-29 -71 0
-27 -75 0
-29 -72 0
-26 -72 0
-27 -72 0
-26 -71 0
-28 -72 0
-28 -80 0
-30 -77 0
-29 -80 0
-27 -77 0
-27 -80 0
-26 -78 0
-29 -78 0
-26 -82 0
-27 -85 0
-30 -83 0
-26 -85 0
-28 -84 0
-30 -81 0
-29 -81 0
-30 -89 0
-26 -88 0
-29 -90 0
-27 -86 0
-26 -87 0
-30 -86 0
-29 -89 0
-26 -95 0
-29 -92 0
-30 -94 0
-28 -92 0
-28 -93 0
-27 -92 0
-27 -91 0
-26 -97 0
-28 -97 0
-29 -96 0
-30 -96 0
-27 -100 0
-29 -100 0
-29 -97 0
-26 -103 0
-29 -104 0
-27 -104 0
-26 -104 0
-27 -103 0
-30 -105 0
-27 -101 0
-30 -110 0
-27 -109 0
-30 -107 0
-29 -109 0
-26 -109 0
-29 -107 0
-29 -106 0
-29 -114 0
-26 -115 0
-26 -111 0
-28 -113 0
-27 -111 0
-27 -113 0
-28 -111 0
-29 -118 0
-30 -116 0
-30 -117 0
-26 -117 0
-28 -120 0
-26 -118 0
-28 -116 0
-30 -122 0
-28 -123 0
-26 -125 0
-30 -121 0
-27 -125 0
-29 -123 0
-30 -125 0
-29 -127 0
-28 -127 0
-28 -129 0
-30 -127 0
-26 -126 0
-29 -130 0
-26 -128 0
-26 -131 0
-30 -133 0
-28 -131 0
-30 -132 0
-27 -131 0
-27 -133 0
-26 -132 0
-28 -140 0
-26 -138 0
-28 -136 0
-26 -137 0
-28 -137 0
-27 -140 0
-30 -139 0
-30 -141 0
-27 -142 0
-29 -143 0
-27 -144 0
-29 -141 0
-26 -141 0
-28 -142 0
-26 -150 0
-27 -146 0
-27 -147 0
-27 -150 0
-27 -149 0
-29 -148 0
-30 -146 0
-32 -39 0
-32 -40 0
-33 -40 0
-33 -38 0
-33 -36 0
-34 -38 0
-32 -38 0
-35 -43 0
-32 -42 0
-34 -43 0
-34 -44 0
-35 -41 0
-34 -45 0
-33 -43 0
-34 -49 0
-31 -49 0
-31 -46 0
-31 -48 0
-32 -48 0
-34 -48 0
-35 -46 0
-32 -53 0
-33 -53 0
-31 -54 0
-32 -51 0
-31 -51 0
-35 -52 0
-32 -54 0
-33 -58 0
-34 -58 0
-34 -59 0
-35 -56 0
-34 -60 0
-31 -56 0
-33 -60 0
-32 -62 0
-34 -63 0
-35 -61 0
-34 -61 0
-34 -65 0
-35 -62 0
-35 -64 0
-32 -68 0
-34 -66 0
-34 -70 0
-33 -69 0
-32 -66 0
-33 -67 0
-35 -70 0
-31 -71 0
-32 -71 0
-32 -73 0
-35 -73 0
-31 -75 0
-35 -74 0
-32 -72 0
-34 -79 0
-32 -76 0
-35 -80 0
-33 -80 0
-31 -78 0
-33 -76 0
-32 -77 0
-34 -82 0
-34 -83 0
-35 -81 0
-31 -83 0
-32 -84 0
-33 -83 0
-32 -81 0
-33 -86 0
-32 -86 0
-35 -90 0
-34 -88 0
-31 -86 0
-35 -87 0
-34 -87 0
-31 -95 0
-35 -95 0
-35 -94 0
-35 -92 0
-34 -93 0
-33 -93 0
-32 -91 0
-34 -97 0
-35 -98 0
-32 -96 0
-31 -100 0
-34 -96 0
-33 -100 0
-33 -96 0
-31 -101 0
-33 -104 0
-35 -104 0
-35 -101 0
-32 -104 0
-35 -102 0
-32 -103 0
-34 -110 0
-32 -110 0
-34 -107 0
-31 -109 0
-32 -108 0
-32 -106 0
-35 -107 0
-31 -113 0
-32 -114 0
-35 -115 0
-32 -115 0
-31 -111 0
-35 -113 0
-31 -114 0
-35 -118 0
-31 -119 0
-33 -119 0
-31 -116 0
-35 -116 0
-33 -120 0
-34 -120 0
-35 -124 0
-34 -124 0
-34 -122 0
-31 -123 0
-34 -125 0
-33 -122 0
-33 -123 0
-32 -127 0
-35 -127 0
-33 -129 0
-35 -128 0
-35 -126 0
-32 -129 0
-34 -127 0
-35 -132 0
-33 -133 0
-34 -135 0
-31 -133 0
-35 -135 0
-32 -132 0
-35 -131 0
-33 -138 0
-35 -140 0
-31 -136 0
-35 -137 0
-32 -136 0
-33 -137 0
-34 -140 0
-35 -145 0
-34 -141 0
-34 -145 0
-35 -143 0
-35 -141 0
-33 -144 0
-31 -144 0
-35 -150 0
-32 -148 0
-31 -147 0
-35 -146 0
-32 -147 0
-31 -148 0
-33 -148 0
-37 -47 0
-39 -46 0
-40 -48 0
-36 -49 0
-39 -48 0
-36 -48 0
-40 -50 0
-39 -54 0
-38 -52 0
-38 -51 0
-38 -54 0
-40 -52 0
-37 -52 0
-36 -52 0
-39 -58 0
-38 -58 0
-40 -58 0
-38 -56 0
-40 -60 0
-37 -56 0
-36 -57 0
-37 -61 0
-38 -61 0
-39 -64 0
-36 -64 0
-38 -65 0
-39 -63 0
-37 -65 0
-40 -69 0
-37 -66 0
-38 -69 0
-36 -66 0
-36 -68 0
-37 -70 0
-37 -69 0
-38 -79 0
-36 -77 0
-38 -80 0
-37 -77 0
-40 -78 0
-37 -79 0
-40 -77 0
-37 -83 0
-40 -85 0
-37 -85 0
-39 -81 0
-40 -81 0
-39 -82 0
-39 -83 0
-39 -89 0
-39 -86 0
-36 -90 0
-37 -89 0
-36 -88 0
-37 -87 0
-37 -90 0
-38 -94 0
-40 -95 0
-37 -92 0
-36 -95 0
-36 -93 0
-36 -91 0
-39 -93 0
-36 -100 0
-38 -97 0
-40 -97 0
-37 -97 0
-40 -98 0
-36 -99 0
-37 -98 0
-40 -104 0
-39 -105 0
-36 -105 0
-39 -103 0
-36 -102 0
-37 -101 0
-37 -102 0
-37 -106 0
-36 -108 0
-40 -107 0
-39 -106 0
-40 -106 0
-38 -107 0
-36 -109 0
-40 -114 0
-38 -113 0
-36 -112 0
-39 -114 0
-39 -111 0
-39 -115 0
-37 -115 0
-36 -120 0
-39 -117 0
-37 -116 0
-37 -118 0
-39 -118 0
-39 -119 0
-36 -118 0
-39 -126 0
-38 -130 0
-40 -129 0
-37 -130 0
-39 -128 0
-38 -128 0
-38 -129 0
-36 -132 0
-37 -135 0
-40 -135 0
-37 -131 0
-39 -134 0
-40 -134 0
-36 -135 0
-39 -136 0
-39 -137 0
-36 -140 0
-36 -139 0
-39 -139 0
-38 -138 0
-36 -137 0
-39 -141 0
-38 -143 0
-37 -141 0
-36 -141 0
-37 -144 0
-39 -145 0
-37 -143 0
-37 -146 0
-40 -147 0
-38 -150 0
-39 -149 0
-38 -146 0
-39 -146 0
-40 -146 0
-45 -47 0
-41 -47 0
-41 -46 0
-45 -49 0
-44 -46 0
-45 -48 0
-43 -49 0
-44 -55 0
-41 -55 0
-42 -52 0
-45 -53 0
-44 -51 0
-45 -54 0
-44 -54 0
-45 -59 0
-44 -57 0
-41 -57 0
-42 -57 0
-45 -58 0
-43 -58 0
-42 -56 0
-45 -65 0
-41 -64 0
-45 -62 0
-42 -62 0
-45 -64 0
-41 -61 0
-45 -61 0
-44 -67 0
-43 -66 0
-45 -66 0
-42 -69 0
-43 -70 0
-41 -68 0
-45 -67 0
-41 -73 0
-42 -74 0
-43 -74 0
-42 -75 0
-43 -71 0
-43 -73 0
-42 -71 0
-42 -77 0
-45 -80 0
-42 -78 0
-44 -80 0
-42 -79 0
-41 -79 0
-43 -78 0
-45 -82 0
-42 -85 0
-43 -84 0
-44 -81 0
-45 -81 0
-43 -82 0
-43 -83 0
-44 -89 0
-45 -90 0
-42 -86 0
-41 -89 0
-43 -90 0
-45 -88 0
-44 -86 0
-43 -91 0
-45 -94 0
-45 -95 0
-45 -92 0
-44 -93 0
-42 -92 0
-41 -94 0
-42 -100 0
-41 -98 0
-42 -99 0
-41 -99 0
-44 -100 0
-44 -96 0
-45 -96 0
-41 -104 0
-44 -102 0
-43 -103 0
-42 -102 0
-44 -103 0
-45 -105 0
-41 -101 0
-43 -109 0
-45 -108 0
-43 -108 0
-42 -110 0
-42 -106 0
-44 -107 0
-42 -109 0
-41 -115 0
-44 -113 0
-44 -115 0
-45 -114 0
-42 -114 0
-42 -115 0
-45 -111 0
-41 -119 0
-45 -120 0
-43 -119 0
-44 -120 0
-45 -117 0
-41 -120 0
-41 -116 0
-43 -124 0
-44 -122 0
-41 -125 0
-42 -125 0
-41 -121 0
-41 -123 0
-42 -122 0
-43 -129 0
-45 -128 0
-41 -127 0
-44 -130 0
-41 -128 0
-44 -126 0
-42 -128 0
-41 -135 0
-42 -133 0
-42 -134 0
-45 -133 0
-43 -135 0
-43 -133 0
-41 -132 0
-42 -137 0
-43 -137 0
-41 -139 0
-44 -138 0
-44 -136 0
-44 -140 0
-41 -137 0
-42 -141 0
-45 -144 0
-41 -144 0
-44 -144 0
-42 -144 0
-43 -141 0
-45 -145 0
-43 -148 0
-41 -146 0
-45 -150 0
-43 -150 0
-41 -148 0
-42 -149 0
-45 -146 0
-47 -54 0
-49 -52 0
-50 -53 0
-46 -54 0
-47 -51 0
-46 -51 0
-50 -51 0
-48 -58 0
-49 -57 0
-50 -59 0
-47 -60 0
-48 -57 0
-48 -56 0
-47 -57 0
-47 -69 0
-48 -70 0
-50 -66 0
-47 -66 0
-48 -66 0
-49 -68 0
-46 -68 0
-48 -75 0
-46 -74 0
-48 -71 0
-49 -74 0
-47 -74 0
-47 -72 0
-48 -73 0
-50 -79 0
-46 -78 0
-46 -79 0
-50 -78 0
-47 -79 0
-50 -77 0
-47 -76 0
-49 -83 0
-46 -83 0
-48 -82 0
-46 -85 0
-49 -81 0
-46 -81 0
-50 -81 0
-47 -90 0
-47 -86 0
-49 -87 0
-49 -86 0
-50 -87 0
-49 -89 0
-48 -86 0
-48 -93 0
-46 -92 0
-47 -91 0
-50 -95 0
-48 -95 0
-49 -91 0
-48 -91 0
-47 -98 0
-50 -100 0
-47 -96 0
-48 -97 0
-48 -100 0
-50 -97 0
-50 -96 0
-48 -101 0
-48 -105 0
-47 -104 0
-49 -105 0
-50 -103 0
-50 -101 0
-47 -105 0
-49 -108 0
-46 -110 0
-46 -108 0
-46 -106 0
-47 -110 0
-49 -106 0
-48 -107 0
-47 -111 0
-49 -112 0
-47 -114 0
-49 -114 0
-48 -113 0
-50 -115 0
-50 -114 0
-49 -119 0
-48 -118 0
-49 -118 0
-46 -120 0
-49 -116 0
-46 -117 0
-47 -119 0
-50 -123 0
-49 -124 0
-50 -122 0
-48 -123 0
-46 -125 0
-46 -124 0
-47 -121 0
-50 -128 0
-46 -128 0
-49 -128 0
-49 -126 0
-49 -129 0
-46 -127 0
-46 -129 0
-49 -137 0
-48 -136 0
-50 -138 0
-48 -139 0
-47 -138 0
-50 -140 0
-49 -139 0
-48 -144 0
-48 -143 0
-50 -141 0
-47 -141 0
-49 -144 0
-50 -142 0
-48 -141 0
-46 -149 0
-47 -148 0
-48 -150 0
-49 -146 0
-50 -150 0
-50 -149 0
-48 -148 0
-54 -56 0
-54 -60 0
-51 -58 0
-53 -60 0
-53 -57 0
-54 -58 0
-51 -57 0
-53 -63 0
-51 -64 0
-55 -64 0
-55 -61 0
-53 -62 0
-52 -64 0
-54 -63 0
-53 -70 0
-51 -67 0
-54 -67 0
-51 -66 0
-52 -66 0
-51 -69 0
-54 -69 0
-51 -72 0
-53 -73 0
-54 -72 0
-51 -73 0
-51 -74 0
-51 -75 0
-55 -71 0
-51 -77 0
-53 -80 0
-52 -76 0
-55 -76 0
-54 -80 0
-51 -80 0
-52 -80 0
-53 -85 0
-53 -83 0
-51 -82 0
-52 -81 0
-54 -85 0
-51 -84 0
-55 -84 0
-53 -88 0
-54 -88 0
-52 -89 0
-55 -88 0
-53 -87 0
-51 -90 0
-52 -87 0
-51 -94 0
-51 -91 0
-54 -95 0
-52 -94 0
-52 -91 0
-53 -95 0
-55 -94 0
-51 -98 0
-51 -97 0
-54 -98 0
-54 -97 0
-53 -100 0
-55 -97 0
-51 -96 0
-51 -106 0
-55 -107 0
-54 -107 0
-54 -109 0
-53 -110 0
-51 -107 0
-51 -109 0
-54 -111 0
-55 -111 0
-55 -114 0
-53 -111 0
-52 -115 0
-54 -114 0
-51 -111 0
-55 -117 0
-52 -120 0
-52 -118 0
-54 -116 0
-54 -120 0
-53 -116 0
-52 -116 0
-55 -125 0
-53 -125 0
-53 -121 0
-51 -123 0
-52 -124 0
-55 -122 0
-54 -125 0
-54 -129 0
-53 -126 0
-55 -127 0
-54 -127 0
-52 -128 0
-52 -130 0
-51 -127 0
-52 -132 0
-51 -134 0
-55 -134 0
-55 -131 0
-53 -131 0
-54 -135 0
-52 -135 0
-53 -140 0
-54 -136 0
-55 -138 0
-51 -138 0
-52 -136 0
-53 -139 0
-53 -136 0
-54 -146 0
-53 -150 0
-51 -147 0
-52 -147 0
-55 -149 0
-52 -149 0
-51 -149 0
-59 -65 0
-60 -64 0
-59 -64 0
-58 -62 0
-57 -62 0
-56 -63 0
-60 -65 0
-59 -69 0
-59 -67 0
-56 -68 0
-57 -68 0
-58 -67 0
-56 -66 0
-60 -66 0
-58 -75 0
-56 -72 0
-56 -74 0
-60 -71 0
-60 -75 0
-56 -73 0
-60 -72 0
-56 -83 0
-59 -83 0
-56 -84 0
-57 -81 0
-60 -85 0
-59 -85 0
-57 -82 0
-57 -87 0
-59 -90 0
-56 -89 0
-56 -86 0
-57 -90 0
-57 -88 0
-56 -87 0
-56 -95 0
-59 -91 0
-59 -94 0
-57 -92 0
-57 -95 0
-58 -91 0
-59 -93 0
-58 -98 0
-60 -98 0
-58 -100 0
-56 -99 0
-57 -96 0
-58 -97 0
-57 -99 0
-56 -105 0
-58 -105 0
-60 -105 0
-59 -102 0
-60 -101 0
-57 -103 0
-56 -102 0
-59 -106 0
-56 -107 0
-56 -106 0
-58 -109 0
-57 -110 0
-57 -109 0
-58 -107 0
-56 -111 0
-57 -114 0
-56 -115 0
-58 -115 0
-59 -111 0
-59 -115 0
-60 -113 0
-60 -116 0
-59 -117 0
-58 -120 0
-60 -118 0
-59 -118 0
-58 -118 0
-56 -116 0
-58 -124 0
-60 -122 0
-57 -123 0
-57 -122 0
-57 -125 0
-60 -125 0
-60 -123 0
-57 -134 0
-58 -135 0
-57 -131 0
-56 -131 0
-59 -132 0
-58 -132 0
-56 -132 0
-56 -136 0
-60 -139 0
-59 -138 0
-56 -140 0
-59 -136 0
-59 -137 0
-56 -137 0
-59 -144 0
-57 -142 0
-60 -145 0
-57 -144 0
-59 -145 0
-58 -145 0
-56 -143 0
-60 -150 0
-60 -148 0
-58 -148 0
-60 -146 0
-56 -146 0
-58 -146 0
-59 -147 0
-65 -70 0
-64 -66 0
-64 -69 0
-65 -69 0
-63 -68 0
-62 -67 0
-63 -66 0
-65 -72 0
-65 -71 0
-63 -73 0
-61 -73 0
-64 -75 0
-61 -72 0
-62 -73 0
-65 -84 0
-61 -81 0
-61 -85 0
-64 -83 0
-63 -85 0
-62 -81 0
-63 -84 0
-64 -87 0
-65 -88 0
-61 -89 0
-62 -88 0
-63 -88 0
-62 -86 0
-63 -86 0
-63 -95 0
-61 -94 0
-64 -93 0
-61 -93 0
-63 -91 0
-65 -95 0
-63 -93 0
-61 -100 0
-65 -96 0
-62 -98 0
-61 -99 0
-64 -97 0
-63 -100 0
-61 -96 0
-65 -105 0
-64 -103 0
-65 -104 0
-64 -101 0
-63 -104 0
-62 -105 0
-64 -102 0
-61 -107 0
-61 -110 0
-64 -110 0
-63 -108 0
-61 -108 0
-65 -108 0
-65 -107 0
-61 -112 0
-65 -113 0
-62 -115 0
-62 -112 0
-65 -112 0
-61 -114 0
-61 -115 0
-65 -119 0
-62 -116 0
-63 -120 0
-61 -118 0
-64 -118 0
-61 -116 0
-64 -117 0
-61 -125 0
-63 -125 0
-64 -123 0
-61 -122 0
-63 -122 0
-62 -125 0
-65 -124 0
-61 -129 0
-63 -130 0
-65 -126 0
-65 -127 0
-63 -129 0
-61 -126 0
-62 -130 0
-65 -133 0
-64 -131 0
-61 -132 0
-65 -132 0
-61 -133 0
-64 -133 0
-64 -134 0
-64 -136 0
-63 -139 0
-65 -139 0
-61 -138 0
-64 -140 0
-63 -140 0
-65 -136 0
-64 -145 0
-65 -142 0
-65 -144 0
-61 -142 0
-63 -145 0
-64 -141 0
-65 -143 0
-64 -146 0
-63 -147 0
-62 -147 0
-63 -146 0
-64 -150 0
-63 -149 0
-65 -150 0
-69 -71 0
-66 -71 0
-66 -75 0
-68 -73 0
-70 -75 0
-67 -71 0
-68 -71 0
-68 -84 0
-66 -83 0
-69 -82 0
-68 -85 0
-67 -81 0
-68 -81 0
-70 -82 0
-68 -89 0
-69 -89 0
-67 -89 0
-69 -86 0
-66 -90 0
-69 -87 0
-68 -88 0
-67 -91 0
-70 -94 0
-69 -91 0
-70 -91 0
-68 -94 0
-67 -93 0
-67 -95 0
-69 -99 0
-68 -98 0
-69 -100 0
-66 -100 0
-68 -100 0
-66 -99 0
-67 -99 0
-68 -104 0
-69 -101 0
-70 -105 0
-70 -104 0
-68 -102 0
-66 -104 0
-69 -103 0
-67 -111 0
-69 -114 0
-69 -115 0
-67 -113 0
-68 -111 0
-66 -114 0
-70 -114 0
-70 -124 0
-67 -123 0
-68 -124 0
-69 -125 0
-67 -124 0
-68 -122 0
-69 -122 0
-70 -132 0
-66 -132 0
-69 -134 0
-68 -131 0
-67 -133 0
-67 -131 0
-69 -135 0
-66 -140 0
-69 -138 0
-68 -139 0
-70 -139 0
-67 -136 0
-66 -137 0
-68 -138 0
-66 -142 0
-67 -143 0
-70 -144 0
-68 -141 0
-70 -145 0
-68 -145 0
-69 -142 0
-68 -146 0
-70 -149 0
-69 -149 0
-70 -147 0
-66 -148 0
-68 -147 0
-68 -149 0
-71 -78 0
-75 -79 0
-74 -78 0
-75 -76 0
-71 -80 0
-74 -79 0
-75 -77 0
-73 -84 0
-71 -83 0
-71 -81 0
-73 -82 0
-72 -85 0
-74 -81 0
-71 -84 0
-75 -90 0
-73 -86 0
-73 -89 0
-75 -88 0
-71 -89 0
-75 -87 0
-74 -89 0
-72 -94 0
-75 -95 0
-71 -94 0
-71 -95 0
-75 -93 0
-75 -92 0
-73 -92 0
-71 -99 0
-73 -100 0
-72 -96 0
-75 -99 0
-71 -98 0
-74 -98 0
-71 -100 0
-75 -105 0
-74 -101 0
-74 -105 0
-71 -101 0
-73 -103 0
-75 -104 0
-72 -103 0
-73 -106 0
-72 -108 0
-73 -108 0
-71 -107 0
-72 -107 0
-72 -110 0
-74 -110 0
-74 -114 0
-72 -111 0
-75 -113 0
-74 -113 0
-75 -114 0
-71 -114 0
-72 -115 0
-74 -120 0
-75 -118 0
-74 -116 0
-75 -117 0
-72 -120 0
-71 -120 0
-75 -120 0
-71 -124 0
-72 -123 0
-75 -125 0
-74 -123 0
-71 -125 0
-73 -125 0
-74 -121 0
-74 -128 0
-72 -127 0
-71 -129 0
-74 -126 0
-73 -126 0
-73 -130 0
-74 -129 0
-75 -134 0
-75 -132 0
-74 -133 0
-73 -134 0
-73 -132 0
-74 -134 0
-71 -131 0
-72 -139 0
-75 -137 0
-72 -138 0
-74 -138 0
-74 -140 0
-71 -138 0
-71 -136 0
-75 -142 0
-74 -144 0
-74 -145 0
-71 -144 0
-73 -141 0
-73 -145 0
-71 -142 0
-71 -147 0
-74 -150 0
-71 -148 0
-73 -149 0
-74 -148 0
-75 -148 0
-75 -149 0
-76 -87 0
-78 -88 0
-77 -89 0
-79 -88 0
-76 -90 0
-79 -89 0
-76 -86 0
-77 -94 0
-80 -93 0
-78 -94 0
-79 -94 0
-80 -91 0
-76 -93 0
-80 -95 0
-77 -102 0
-78 -104 0
-80 -104 0
-78 -101 0
-77 -103 0
-80 -103 0
-76 -105 0
-80 -106 0
-76 -108 0
-78 -109 0
-79 -107 0
-76 -106 0
-78 -107 0
-77 -106 0
-78 -120 0
-78 -118 0
-78 -119 0
-76 -116 0
-78 -116 0
-77 -116 0
-77 -118 0
-80 -122 0
-79 -123 0
-80 -123 0
-76 -125 0
-77 -124 0
-80 -124 0
-78 -124 0
-79 -130 0
-77 -126 0
-80 -129 0
-76 -128 0
-79 -129 0
-79 -128 0
-78 -127 0
-76 -131 0
-76 -134 0
-80 -132 0
-80 -135 0
-77 -132 0
-76 -132 0
-78 -135 0
-76 -137 0
-76 -138 0
-76 -139 0
-78 -136 0
-79 -140 0
-79 -136 0
-76 -136 0
-77 -141 0
-78 -143 0
-80 -142 0
-77 -142 0
-79 -143 0
-79 -144 0
-78 -141 0
-79 -148 0
-80 -147 0
-76 -149 0
-77 -146 0
-77 -150 0
-76 -148 0
-76 -146 0
-83 -87 0
-81 -90 0
-81 -87 0
-84 -86 0
-84 -90 0
-85 -90 0
-81 -86 0
-82 -91 0
-81 -91 0
-84 -92 0
-83 -94 0
-84 -91 0
-82 -94 0
-81 -95 0
-85 -98 0
-82 -96 0
-84 -97 0
-81 -97 0
-85 -96 0
-84 -96 0
-82 -99 0
-82 -105 0
-82 -102 0
-83 -104 0
-83 -105 0
-82 -104 0
-84 -102 0
-85 -103 0
-81 -108 0
-84 -108 0
-85 -108 0
-83 -106 0
-82 -108 0
-81 -110 0
-84 -110 0
-84 -118 0
-81 -116 0
-81 -118 0
-82 -118 0
-83 -116 0
-82 -119 0
-84 -119 0
-83 -121 0
-85 -125 0
-81 -122 0
-83 -124 0
-85 -121 0
-84 -122 0
-82 -125 0
-83 -130 0
-84 -129 0
-85 -130 0
-85 -128 0
-81 -126 0
-83 -127 0
-83 -129 0
-84 -133 0
-83 -134 0
-84 -131 0
-85 -135 0
-84 -132 0
-81 -134 0
-82 -131 0
-84 -139 0
-83 -140 0
-85 -136 0
-84 -137 0
-85 -140 0
-82 -140 0
-81 -136 0
-84 -142 0
-82 -145 0
-83 -142 0
-81 -142 0
-83 -141 0
-81 -144 0
-84 -141 0
-81 -146 0
-84 -148 0
-82 -146 0
-85 -148 0
-83 -149 0
-81 -149 0
-82 -148 0
-89 -91 0
-88 -93 0
-90 -95 0
-87 -92 0
-90 -92 0
-87 -95 0
-88 -94 0
-89 -103 0
-88 -101 0
-87 -104 0
-89 -105 0
-87 -105 0
-86 -101 0
-86 -104 0
-90 -114 0
-87 -111 0
-86 -113 0
-90 -112 0
-86 -115 0
-88 -114 0
-86 -112 0
-90 -117 0
-90 -120 0
-87 -120 0
-89 -116 0
-87 -117 0
-88 -119 0
-86 -116 0
-89 -125 0
-87 -121 0
-86 -121 0
-86 -124 0
-89 -121 0
-86 -122 0
-88 -124 0
-87 -126 0
-88 -127 0
-90 -126 0
-90 -130 0
-87 -127 0
-86 -126 0
-86 -128 0
-90 -132 0
-87 -134 0
-87 -135 0
-89 -134 0
-90 -131 0
-89 -131 0
-87 -132 0
-86 -137 0
-89 -136 0
-87 -140 0
-90 -139 0
-90 -138 0
-89 -140 0
-87 -138 0
-87 -141 0
-87 -142 0
-90 -142 0
-87 -144 0
-87 -143 0
-86 -144 0
-88 -141 0
-90 -148 0
-88 -147 0
-90 -149 0
-88 -150 0
-86 -146 0
-89 -147 0
-86 -147 0
-92 -99 0
-94 -100 0
-93 -96 0
-94 -98 0
-94 -96 0
-95 -97 0
-91 -97 0
-94 -102 0
-93 -105 0
-93 -103 0
-94 -101 0
-94 -103 0
-95 -105 0
-91 -104 0
-91 -108 0
-93 -108 0
-94 -109 0
-93 -110 0
-93 -106 0
-92 -106 0
-94 -110 0
-91 -113 0
-95 -111 0
-93 -113 0
-94 -113 0
-94 -111 0
-95 -113 0
-92 -114 0
-94 -116 0
-92 -118 0
-94 -117 0
-92 -117 0
-95 -118 0
-94 -119 0
-91 -118 0
-94 -121 0
-91 -123 0
-91 -124 0
-94 -123 0
-95 -124 0
-94 -124 0
-93 -125 0
-92 -128 0
-95 -126 0
-95 -128 0
-93 -126 0
-92 -126 0
-94 -130 0
-94 -126 0
-94 -133 0
-95 -134 0
-95 -133 0
-93 -131 0
-95 -131 0
-91 -134 0
-93 -134 0
-94 -138 0
-92 -139 0
-95 -138 0
-92 -138 0
-94 -136 0
-91 -137 0
-91 -136 0
-91 -143 0
-95 -143 0
-94 -145 0
-94 -142 0
-93 -143 0
-95 -145 0
-92 -145 0
-92 -150 0
-92 -147 0
-93 -146 0
-95 -148 0
-93 -149 0
-93 -148 0
-94 -150 0
-98 -110 0
-99 -110 0
-99 -108 0
-97 -106 0
-100 -109 0
-99 -109 0
-97 -109 0
-99 -113 0
-100 -114 0
-96 -115 0
-100 -112 0
-100 -113 0
-99 -111 0
-100 -115 0
-99 -117 0
-99 -116 0
-98 -118 0
-99 -119 0
-96 -118 0
-96 -116 0
-96 -120 0
-97 -124 0
-96 -124 0
-98 -125 0
-96 -125 0
-97 -123 0
-100 -125 0
-98 -121 0
-98 -134 0
-98 -131 0
-98 -133 0
-99 -131 0
-97 -131 0
-97 -132 0
-100 -133 0
-97 -138 0
-98 -137 0
-98 -138 0
-96 -139 0
-99 -138 0
-97 -136 0
-97 -139 0
-99 -141 0
-96 -143 0
-98 -144 0
-100 -145 0
-100 -144 0
-100 -143 0
-98 -142 0
-97 -150 0
-99 -147 0
-99 -148 0
-97 -146 0
-97 -148 0
-98 -149 0
-96 -149 0
-103 -107 0
-102 -106 0
-105 -107 0
-102 -110 0
-104 -106 0
-103 -108 0
-103 -106 0
-101 -111 0
-103 -114 0
-105 -115 0
-101 -115 0
-102 -112 0
-105 -114 0
-102 -111 0
-103 -119 0
-104 -117 0
-104 -116 0
-105 -120 0
-103 -117 0
-105 -119 0
-105 -118 0
-102 -121 0
-104 -121 0
-101 -123 0
-101 -125 0
-102 -124 0
-105 -121 0
-104 -124 0
-102 -130 0
-102 -129 0
-103 -128 0
-101 -127 0
-104 -129 0
-104 -128 0
-101 -130 0
-102 -135 0
-105 -132 0
-103 -134 0
-105 -135 0
-104 -131 0
-103 -132 0
-104 -132 0
-105 -136 0
-104 -139 0
-101 -138 0
-103 -138 0
-103 -136 0
-101 -137 0
-104 -138 0
-104 -143 0
-105 -144 0
-103 -143 0
-101 -145 0
-103 -144 0
-101 -142 0
-102 -142 0
-102 -148 0
-102 -147 0
-102 -150 0
-105 -148 0
-105 -147 0
-102 -149 0
-104 -150 0
-106 -112 0
-106 -111 0
-107 -112 0
-108 -112 0
-108 -113 0
-109 -114 0
-107 -114 0
-108 -122 0
-110 -123 0
-109 -123 0
-109 -121 0
-106 -123 0
-106 -125 0
-106 -124 0
-107 -129 0
-108 -126 0
-110 -127 0
-106 -129 0
-108 -127 0
-109 -130 0
-110 -130 0
-107 -131 0
-109 -133 0
-110 -132 0
-109 -132 0
-108 -134 0
-107 -134 0
-108 -135 0
-108 -136 0
-110 -138 0
-107 -138 0
-110 -137 0
-110 -139 0
-107 -136 0
-106 -139 0
-109 -142 0
-110 -145 0
-108 -143 0
-106 -143 0
-108 -144 0
-107 -141 0
-109 -141 0
-110 -150 0
-108 -149 0
-110 -148 0
-107 -146 0
-108 -150 0
-110 -149 0
-107 -150 0
-111 -118 0
-113 -116 0
-114 -116 0
-115 -118 0
-115 -119 0
-113 -118 0
-114 -117 0
-114 -123 0
-112 -121 0
-111 -125 0
-113 -125 0
-113 -121 0
-115 -124 0
-114 -122 0
-114 -135 0
-111 -135 0
-112 -131 0
-113 -134 0
-113 -132 0
-112 -132 0
-111 -131 0
-111 -139 0
-115 -140 0
-112 -140 0
-111 -136 0
-112 -139 0
-115 -136 0
-111 -138 0
-111 -148 0
-113 -150 0
-113 -146 0
-112 -149 0
-115 -146 0
-111 -147 0
-112 -146 0
-117 -125 0
-119 -121 0
-116 -121 0
-119 -122 0
-118 -125 0
-117 -124 0
-119 -125 0
-120 -129 0
-120 -126 0
-117 -130 0
-117 -129 0
-119 -128 0
-116 -130 0
-119 -129 0
-119 -133 0
-118 -135 0
-117 -131 0
-119 -134 0
-120 -131 0
-120 -135 0
-118 -133 0
-118 -136 0
-116 -139 0
-118 -137 0
-117 -140 0
-119 -139 0
-120 -136 0
-118 -138 0
-119 -142 0
-116 -143 0
-117 -142 0
-116 -141 0
-116 -142 0
-116 -144 0
-117 -141 0
-119 -146 0
-116 -148 0
-117 -148 0
-119 -148 0
-120 -146 0
-120 -150 0
-120 -147 0
-122 -128 0
-124 -128 0
-124 -126 0
-123 -126 0
-125 -129 0
-121 -127 0
-123 -127 0
-125 -134 0
-121 -135 0
-122 -135 0
-124 -134 0
-123 -131 0
-123 -132 0
-124 -132 0
-123 -139 0
-122 -138 0
-121 -138 0
-121 -136 0
-123 -137 0
-125 -138 0
-121 -140 0
-125 -145 0
-125 -143 0
-123 -141 0
-121 -144 0
-121 -145 0
-123 -145 0
-123 -143 0
-123 -147 0
-122 -150 0
-121 -150 0
-123 -148 0
-122 -146 0
-124 -148 0
-124 -147 0
-126 -135 0
-127 -132 0
-128 -132 0
-130 -133 0
-129 -131 0
-127 -134 0
-127 -135 0
-130 -137 0
-127 -140 0
-127 -136 0
-127 -139 0
-126 -138 0
-128 -139 0
-129 -138 0
-126 -141 0
-128 -144 0
-127 -143 0
-129 -144 0
-130 -141 0
-129 -145 0
-127 -142 0
-129 -149 0
-129 -146 0
-130 -149 0
-127 -148 0
-128 -148 0
-127 -150 0
-127 -147 0
-132 -137 0
-133 -139 0
-134 -138 0
-132 -140 0
-131 -140 0
-132 -138 0
-134 -136 0
-134 -145 0
-133 -144 0
-134 -141 0
-135 -141 0
-132 -142 0
-131 -144 0
-132 -145 0
-131 -148 0
-135 -146 0
-132 -146 0
-135 -150 0
-132 -149 0
-133 -146 0
-134 -147 0
-140 -144 0
-140 -145 0
-136 -142 0
-137 -142 0
-137 -144 0
-137 -143 0
-138 -145 0
-137 -147 0
-136 -146 0
-140 -150 0
-139 -147 0
-136 -147 0
-139 -148 0
-139 -150 0
-142 -150 0
-142 -149 0
-144 -147 0
-141 -148 0
-145 -146 0
-144 -146 0
-145 -147 0
